Cost: 405
0-32-11-38-9-30-39-10-5-12-0
0-18-4-41-19-40-42-44-37-17-0
0-1-31-28-3-36-35-20-29-21-16-0
0-27-8-26-7-43-23-6-0
Cost: 405
0-32-11-38-9-30-39-10-5-12-0
0-18-4-41-19-40-42-44-37-17-0
0-1-31-28-3-36-35-20-29-21-16-0
0-27-8-26-7-43-23-6-0
Cost: 405
0-32-11-38-9-30-39-10-5-12-0
0-18-4-41-19-40-42-44-37-17-0
0-1-31-28-3-36-35-20-29-21-16-0
0-27-8-26-7-43-23-6-0
Cost: 405
0-32-11-38-9-30-39-10-5-12-0
0-18-4-41-19-40-42-44-37-17-0
0-1-31-28-3-36-35-20-29-21-16-0
0-27-8-26-7-43-23-6-0
Cost: 405
0-32-11-38-9-30-39-10-5-12-0
0-18-4-41-19-40-42-44-37-17-0
0-1-31-28-3-36-35-20-29-21-16-0
0-27-8-26-7-43-23-6-0
Cost: 405
0-32-11-38-9-30-39-10-5-12-0
0-18-4-41-19-40-42-44-37-17-0
0-1-31-28-3-36-35-20-29-21-16-0
0-27-8-26-7-43-23-6-0
Cost: 405
0-32-11-38-9-30-39-10-5-12-0
0-18-4-41-19-40-42-44-37-17-0
0-1-31-28-3-36-35-20-29-21-16-0
0-27-8-26-7-43-23-6-0
Cost: 405
0-32-11-38-9-30-39-10-5-12-0
0-18-4-41-19-40-42-44-37-17-0
0-1-31-28-3-36-35-20-29-21-16-0
0-27-8-26-7-43-23-6-0
Cost: 405
0-32-11-38-9-30-39-10-5-12-0
0-18-4-41-19-40-42-44-37-17-0
0-1-31-28-3-36-35-20-29-21-16-0
0-27-8-26-7-43-23-6-0
Cost: 405
0-32-11-38-9-30-39-10-5-12-0
0-18-4-41-19-40-42-44-37-17-0
0-1-31-28-3-36-35-20-29-21-16-0
0-27-8-26-7-43-23-6-0
Cost: 405
0-18-4-41-19-40-42-44-37-17-0
0-16-21-29-20-35-36-3-28-31-1-0
0-12-5-10-39-30-9-38-11-32-0
0-27-8-26-7-43-23-6-0
Cost: 405
0-18-4-41-19-40-42-44-37-17-0
0-16-21-29-20-35-36-3-28-31-1-0
0-12-5-10-39-30-9-38-11-32-0
0-27-8-26-7-43-23-6-0
Cost: 405
0-18-4-41-19-40-42-44-37-17-0
0-16-21-29-20-35-36-3-28-31-1-0
0-12-5-10-39-30-9-38-11-32-0
0-27-8-26-7-43-23-6-0
Cost: 405
0-18-4-41-19-40-42-44-37-17-0
0-16-21-29-20-35-36-3-28-31-1-0
0-12-5-10-39-30-9-38-11-32-0
0-27-8-26-7-43-23-6-0
Cost: 405
0-18-4-41-19-40-42-44-37-17-0
0-16-21-29-20-35-36-3-28-31-1-0
0-12-5-10-39-30-9-38-11-32-0
0-27-8-26-7-43-23-6-0
Cost: 405
0-18-4-41-19-40-42-44-37-17-0
0-16-21-29-20-35-36-3-28-31-1-0
0-12-5-10-39-30-9-38-11-32-0
0-27-8-26-7-43-23-6-0
Cost: 405
0-18-4-41-19-40-42-44-37-17-0
0-16-21-29-20-35-36-3-28-31-1-0
0-12-5-10-39-30-9-38-11-32-0
0-27-8-26-7-43-23-6-0
Cost: 405
0-18-4-41-19-40-42-44-37-17-0
0-16-21-29-20-35-36-3-28-31-1-0
0-12-5-10-39-30-9-38-11-32-0
0-27-8-26-7-43-23-6-0
Cost: 405
0-18-4-41-19-40-42-44-37-17-0
0-16-21-29-20-35-36-3-28-31-1-0
0-12-5-10-39-30-9-38-11-32-0
0-27-8-26-7-43-23-6-0
Cost: 405
0-18-4-41-19-40-42-44-37-17-0
0-16-21-29-20-35-36-3-28-31-1-0
0-12-5-10-39-30-9-38-11-32-0
0-27-8-26-7-43-23-6-0
Cost: 405
0-18-4-41-19-40-42-44-37-17-0
0-16-21-29-20-35-36-3-28-31-1-0
0-12-5-10-39-30-9-38-11-32-0
0-27-8-26-7-43-23-6-0
Cost: 405
0-18-4-41-19-40-42-44-37-17-0
0-16-21-29-20-35-36-3-28-31-1-0
0-12-5-10-39-30-9-38-11-32-0
0-27-8-26-7-43-23-6-0
Cost: 405
0-32-11-38-9-30-39-10-5-12-0
0-18-4-41-19-40-42-44-37-17-0
0-1-31-28-3-36-35-20-29-21-16-0
0-6-23-43-7-26-8-27-0
Cost: 405
0-18-4-41-19-40-42-44-37-17-0
0-16-21-29-20-35-36-3-28-31-1-0
0-12-5-10-39-30-9-38-11-32-0
0-27-8-26-7-43-23-6-0
Cost: 405
0-18-4-41-19-40-42-44-37-17-0
0-16-21-29-20-35-36-3-28-31-1-0
0-12-5-10-39-30-9-38-11-32-0
0-27-8-26-7-43-23-6-0
Cost: 405
0-18-4-41-19-40-42-44-37-17-0
0-16-21-29-20-35-36-3-28-31-1-0
0-12-5-10-39-30-9-38-11-32-0
0-27-8-26-7-43-23-6-0
Cost: 405
0-12-5-10-39-30-9-38-11-32-0
0-6-23-43-7-26-8-27-0
0-16-21-29-20-35-36-3-28-31-1-0
0-17-37-44-42-40-19-41-4-18-0
Cost: 405
0-18-4-41-40-19-42-44-37-17-0
0-12-5-10-39-30-9-38-11-32-0
0-27-8-26-7-43-23-6-0
0-1-31-28-3-36-35-20-29-21-16-0
Cost: 405
0-12-5-10-39-30-9-38-11-32-0
0-1-31-28-3-36-35-20-29-21-16-0
0-17-37-44-42-19-40-41-4-18-0
0-27-8-26-7-43-23-6-0
Cost: 405
0-32-11-38-9-30-39-10-5-12-0
0-16-21-29-20-35-36-3-28-31-1-0
0-18-4-41-19-40-42-44-37-17-0
0-27-8-26-7-43-23-6-0
Cost: 405
0-1-31-28-3-36-35-20-29-21-16-0
0-27-8-26-7-43-23-6-0
0-32-11-38-9-30-39-10-5-12-0
0-18-4-41-19-40-42-44-37-17-0
